
  25    0


   0  15 2 3 4 5 6 7 8 9 10 11 12 21 22 23 24 
   9   4 16 15 14 13 
   2   4 18 15 14 13 
   5   3 17 15 13 
   4   3 17 15 13 
   7   2 20 17 
   3   2 19 13 
   4   2 16 14 
  10   2 14 13 
   4   1 18 
   7   1 16 
   5   1 13 
   8   1 25
   2   1 25
   8   1 25
  10   1 25
   9   1 25
   5   1 25
   5   1 25
   2   1 25
   8   1 25
   8   1 25
   6   1 25
   1   1 25
   0   0 
